(set-logic ALL)
(declare-fun var0 () String)
(assert (str.in_re var0 (re.++ (re.+ (re.union (str.to_re "000") (str.to_re "11"))) (re.++ (re.+ (re.* (str.to_re "2"))) (re.++ (re.* (re.union (str.to_re "333") (str.to_re "4"))) (re.++ (re.+ (re.* (str.to_re "55"))) (re.++ (re.union (re.* (str.to_re "6")) (re.* (str.to_re "7"))) (re.++ (re.* (re.+ (str.to_re "8"))) (re.++ (re.+ (re.union (str.to_re "999") (str.to_re "aaa"))) (re.++ (re.+ (re.* (str.to_re "bb"))) (re.++ (re.+ (re.union (str.to_re "ccc") (str.to_re "d"))) (re.union (re.+ (str.to_re "eee")) (re.+ (str.to_re "f"))))))))))))))
(assert (<= 101 (str.len var0)))
(check-sat)